\ Model Vehicle Allocation Model
\ LP format - for model browsing. Use MPS format to capture full model detail.
Maximize
  294 x[1,2,1] + 176 x[1,3,1] + 186 x[1,4,1] + 294 x[2,1,1] + 186 x[2,3,1]
   + 192 x[2,4,1] + 176 x[3,1,1] + 186 x[3,2,1] + 200 x[3,4,1]
   + 186 x[4,1,1] + 192 x[4,2,1] + 200 x[4,3,1] + 294 x[1,2,2]
   + 176 x[1,3,2] + 186 x[1,4,2] + 294 x[2,1,2] + 186 x[2,3,2]
   + 192 x[2,4,2] + 176 x[3,1,2] + 186 x[3,2,2] + 200 x[3,4,2]
   + 186 x[4,1,2] + 192 x[4,2,2] + 200 x[4,3,2] + 294 x[1,2,3]
   + 176 x[1,3,3] + 186 x[1,4,3] + 294 x[2,1,3] + 186 x[2,3,3]
   + 192 x[2,4,3] + 176 x[3,1,3] + 186 x[3,2,3] + 200 x[3,4,3]
   + 186 x[4,1,3] + 192 x[4,2,3] + 200 x[4,3,3] + 294 x[1,2,4]
   + 176 x[1,3,4] + 186 x[1,4,4] + 294 x[2,1,4] + 186 x[2,3,4]
   + 192 x[2,4,4] + 176 x[3,1,4] + 186 x[3,2,4] + 200 x[3,4,4]
   + 186 x[4,1,4] + 192 x[4,2,4] + 200 x[4,3,4] + 294 x[1,2,5]
   + 176 x[1,3,5] + 186 x[1,4,5] + 294 x[2,1,5] + 186 x[2,3,5]
   + 192 x[2,4,5] + 176 x[3,1,5] + 186 x[3,2,5] + 200 x[3,4,5]
   + 186 x[4,1,5] + 192 x[4,2,5] + 200 x[4,3,5] + 294 x[1,2,6]
   + 176 x[1,3,6] + 186 x[1,4,6] + 294 x[2,1,6] + 186 x[2,3,6]
   + 192 x[2,4,6] + 176 x[3,1,6] + 186 x[3,2,6] + 200 x[3,4,6]
   + 186 x[4,1,6] + 192 x[4,2,6] + 200 x[4,3,6] - 367.5 y[1,2,1]
   - 220 y[1,3,1] - 232.5 y[1,4,1] - 367.5 y[2,1,1] - 232.5 y[2,3,1]
   - 240 y[2,4,1] - 220 y[3,1,1] - 232.5 y[3,2,1] - 250 y[3,4,1]
   - 232.5 y[4,1,1] - 240 y[4,2,1] - 250 y[4,3,1] - 367.5 y[1,2,2]
   - 220 y[1,3,2] - 232.5 y[1,4,2] - 367.5 y[2,1,2] - 232.5 y[2,3,2]
   - 240 y[2,4,2] - 220 y[3,1,2] - 232.5 y[3,2,2] - 250 y[3,4,2]
   - 232.5 y[4,1,2] - 240 y[4,2,2] - 250 y[4,3,2] - 367.5 y[1,2,3]
   - 220 y[1,3,3] - 232.5 y[1,4,3] - 367.5 y[2,1,3] - 232.5 y[2,3,3]
   - 240 y[2,4,3] - 220 y[3,1,3] - 232.5 y[3,2,3] - 250 y[3,4,3]
   - 232.5 y[4,1,3] - 240 y[4,2,3] - 250 y[4,3,3] - 367.5 y[1,2,4]
   - 220 y[1,3,4] - 232.5 y[1,4,4] - 367.5 y[2,1,4] - 232.5 y[2,3,4]
   - 240 y[2,4,4] - 220 y[3,1,4] - 232.5 y[3,2,4] - 250 y[3,4,4]
   - 232.5 y[4,1,4] - 240 y[4,2,4] - 250 y[4,3,4] - 367.5 y[1,2,5]
   - 220 y[1,3,5] - 232.5 y[1,4,5] - 367.5 y[2,1,5] - 232.5 y[2,3,5]
   - 240 y[2,4,5] - 220 y[3,1,5] - 232.5 y[3,2,5] - 250 y[3,4,5]
   - 232.5 y[4,1,5] - 240 y[4,2,5] - 250 y[4,3,5] - 367.5 y[1,2,6]
   - 220 y[1,3,6] - 232.5 y[1,4,6] - 367.5 y[2,1,6] - 232.5 y[2,3,6]
   - 240 y[2,4,6] - 220 y[3,1,6] - 232.5 y[3,2,6] - 250 y[3,4,6]
   - 232.5 y[4,1,6] - 240 y[4,2,6] - 250 y[4,3,6]
Subject To
 conservazione_t1[1]: x[1,1,1] + x[1,2,1] + x[1,3,1] + x[1,4,1] + y[1,1,1]
   + y[1,2,1] + y[1,3,1] + y[1,4,1] = 1
 conservazione_t1[2]: x[2,1,1] + x[2,2,1] + x[2,3,1] + x[2,4,1] + y[2,1,1]
   + y[2,2,1] + y[2,3,1] + y[2,4,1] = 0
 conservazione_t1[3]: x[3,1,1] + x[3,2,1] + x[3,3,1] + x[3,4,1] + y[3,1,1]
   + y[3,2,1] + y[3,3,1] + y[3,4,1] = 0
 conservazione_t1[4]: x[4,1,1] + x[4,2,1] + x[4,3,1] + x[4,4,1] + y[4,1,1]
   + y[4,2,1] + y[4,3,1] + y[4,4,1] = 0
 conservazione_t2[1,2]: x[2,1,1] + x[3,1,1] + x[4,1,1] - x[1,1,2]
   - x[1,2,2] - x[1,3,2] - x[1,4,2] + 3 y[1,1,1] + y[2,1,1] + y[3,1,1]
   + y[4,1,1] - y[1,1,2] - y[1,2,2] - y[1,3,2] - y[1,4,2] = 0
 conservazione_t2[1,3]: x[2,1,2] + x[3,1,2] + x[4,1,2] - x[1,1,3]
   - x[1,2,3] - x[1,3,3] - x[1,4,3] + 3 y[1,1,2] + y[2,1,2] + y[3,1,2]
   + y[4,1,2] - y[1,1,3] - y[1,2,3] - y[1,3,3] - y[1,4,3] = 0
 conservazione_t2[1,4]: x[2,1,3] + x[3,1,3] + x[4,1,3] - x[1,1,4]
   - x[1,2,4] - x[1,3,4] - x[1,4,4] + 3 y[1,1,3] + y[2,1,3] + y[3,1,3]
   + y[4,1,3] - y[1,1,4] - y[1,2,4] - y[1,3,4] - y[1,4,4] = 0
 conservazione_t2[1,5]: x[2,1,4] + x[3,1,4] + x[4,1,4] - x[1,1,5]
   - x[1,2,5] - x[1,3,5] - x[1,4,5] + 3 y[1,1,4] + y[2,1,4] + y[3,1,4]
   + y[4,1,4] - y[1,1,5] - y[1,2,5] - y[1,3,5] - y[1,4,5] = 0
 conservazione_t2[1,6]: x[2,1,5] + x[3,1,5] + x[4,1,5] - x[1,1,6]
   - x[1,2,6] - x[1,3,6] - x[1,4,6] + 3 y[1,1,5] + y[2,1,5] + y[3,1,5]
   + y[4,1,5] - y[1,1,6] - y[1,2,6] - y[1,3,6] - y[1,4,6] = 0
 conservazione_t2[2,2]: x[1,2,1] + x[3,2,1] + x[4,2,1] - x[2,1,2]
   - x[2,2,2] - x[2,3,2] - x[2,4,2] + y[1,2,1] + 3 y[2,2,1] + y[3,2,1]
   + y[4,2,1] - y[2,1,2] - y[2,2,2] - y[2,3,2] - y[2,4,2] = 0
 conservazione_t2[2,3]: x[1,2,2] + x[3,2,2] + x[4,2,2] - x[2,1,3]
   - x[2,2,3] - x[2,3,3] - x[2,4,3] + y[1,2,2] + 3 y[2,2,2] + y[3,2,2]
   + y[4,2,2] - y[2,1,3] - y[2,2,3] - y[2,3,3] - y[2,4,3] = 0
 conservazione_t2[2,4]: x[1,2,3] + x[3,2,3] + x[4,2,3] - x[2,1,4]
   - x[2,2,4] - x[2,3,4] - x[2,4,4] + y[1,2,3] + 3 y[2,2,3] + y[3,2,3]
   + y[4,2,3] - y[2,1,4] - y[2,2,4] - y[2,3,4] - y[2,4,4] = 0
 conservazione_t2[2,5]: x[1,2,4] + x[3,2,4] + x[4,2,4] - x[2,1,5]
   - x[2,2,5] - x[2,3,5] - x[2,4,5] + y[1,2,4] + 3 y[2,2,4] + y[3,2,4]
   + y[4,2,4] - y[2,1,5] - y[2,2,5] - y[2,3,5] - y[2,4,5] = 0
 conservazione_t2[2,6]: x[1,2,5] + x[3,2,5] + x[4,2,5] - x[2,1,6]
   - x[2,2,6] - x[2,3,6] - x[2,4,6] + y[1,2,5] + 3 y[2,2,5] + y[3,2,5]
   + y[4,2,5] - y[2,1,6] - y[2,2,6] - y[2,3,6] - y[2,4,6] = 0
 conservazione_t2[3,2]: x[1,3,1] + x[2,3,1] + x[4,3,1] - x[3,1,2]
   - x[3,2,2] - x[3,3,2] - x[3,4,2] + y[1,3,1] + y[2,3,1] + 3 y[3,3,1]
   + y[4,3,1] - y[3,1,2] - y[3,2,2] - y[3,3,2] - y[3,4,2] = -1
 conservazione_t2[3,3]: x[1,3,2] + x[2,3,2] + x[4,3,2] - x[3,1,3]
   - x[3,2,3] - x[3,3,3] - x[3,4,3] + y[1,3,2] + y[2,3,2] + 3 y[3,3,2]
   + y[4,3,2] - y[3,1,3] - y[3,2,3] - y[3,3,3] - y[3,4,3] = 0
 conservazione_t2[3,4]: x[1,3,3] + x[2,3,3] + x[4,3,3] - x[3,1,4]
   - x[3,2,4] - x[3,3,4] - x[3,4,4] + y[1,3,3] + y[2,3,3] + 3 y[3,3,3]
   + y[4,3,3] - y[3,1,4] - y[3,2,4] - y[3,3,4] - y[3,4,4] = 0
 conservazione_t2[3,5]: x[1,3,4] + x[2,3,4] + x[4,3,4] - x[3,1,5]
   - x[3,2,5] - x[3,3,5] - x[3,4,5] + y[1,3,4] + y[2,3,4] + 3 y[3,3,4]
   + y[4,3,4] - y[3,1,5] - y[3,2,5] - y[3,3,5] - y[3,4,5] = 0
 conservazione_t2[3,6]: x[1,3,5] + x[2,3,5] + x[4,3,5] - x[3,1,6]
   - x[3,2,6] - x[3,3,6] - x[3,4,6] + y[1,3,5] + y[2,3,5] + 3 y[3,3,5]
   + y[4,3,5] - y[3,1,6] - y[3,2,6] - y[3,3,6] - y[3,4,6] = 0
 conservazione_t2[4,2]: x[1,4,1] + x[2,4,1] + x[3,4,1] - x[4,1,2]
   - x[4,2,2] - x[4,3,2] - x[4,4,2] + y[1,4,1] + y[2,4,1] + y[3,4,1]
   + 3 y[4,4,1] - y[4,1,2] - y[4,2,2] - y[4,3,2] - y[4,4,2] = -1
 conservazione_t2[4,3]: x[1,4,2] + x[2,4,2] + x[3,4,2] - x[4,1,3]
   - x[4,2,3] - x[4,3,3] - x[4,4,3] + y[1,4,2] + y[2,4,2] + y[3,4,2]
   + 3 y[4,4,2] - y[4,1,3] - y[4,2,3] - y[4,3,3] - y[4,4,3] = 0
 conservazione_t2[4,4]: x[1,4,3] + x[2,4,3] + x[3,4,3] - x[4,1,4]
   - x[4,2,4] - x[4,3,4] - x[4,4,4] + y[1,4,3] + y[2,4,3] + y[3,4,3]
   + 3 y[4,4,3] - y[4,1,4] - y[4,2,4] - y[4,3,4] - y[4,4,4] = 0
 conservazione_t2[4,5]: x[1,4,4] + x[2,4,4] + x[3,4,4] - x[4,1,5]
   - x[4,2,5] - x[4,3,5] - x[4,4,5] + y[1,4,4] + y[2,4,4] + y[3,4,4]
   + 3 y[4,4,4] - y[4,1,5] - y[4,2,5] - y[4,3,5] - y[4,4,5] = 0
 conservazione_t2[4,6]: x[1,4,5] + x[2,4,5] + x[3,4,5] - x[4,1,6]
   - x[4,2,6] - x[4,3,6] - x[4,4,6] + y[1,4,5] + y[2,4,5] + y[3,4,5]
   + 3 y[4,4,5] - y[4,1,6] - y[4,2,6] - y[4,3,6] - y[4,4,6] = 0
 R24: x[1,1,1] <= 0
 R25: x[1,2,1] <= 0
 R26: x[1,3,1] <= 0
 R27: x[1,4,1] <= 1
 R28: x[2,1,1] <= 0
 R29: x[2,2,1] <= 0
 R30: x[2,3,1] <= 0
 R31: x[2,4,1] <= 0
 R32: x[3,1,1] <= 0
 R33: x[3,2,1] <= 0
 R34: x[3,3,1] <= 0
 R35: x[3,4,1] <= 0
 R36: x[4,1,1] <= 0
 R37: x[4,2,1] <= 0
 R38: x[4,3,1] <= 0
 R39: x[4,4,1] <= 0
 R40: x[1,1,2] <= 0
 R41: x[1,2,2] <= 0
 R42: x[1,3,2] <= 0
 R43: x[1,4,2] <= 0
 R44: x[2,1,2] <= 0
 R45: x[2,2,2] <= 0
 R46: x[2,3,2] <= 0
 R47: x[2,4,2] <= 0
 R48: x[3,1,2] <= 0
 R49: x[3,2,2] <= 2
 R50: x[3,3,2] <= 0
 R51: x[3,4,2] <= 0
 R52: x[4,1,2] <= 1
 R53: x[4,2,2] <= 0
 R54: x[4,3,2] <= 0
 R55: x[4,4,2] <= 0
 R56: x[1,1,3] <= 0
 R57: x[1,2,3] <= 0
 R58: x[1,3,3] <= 0
 R59: x[1,4,3] <= 0
 R60: x[2,1,3] <= 0
 R61: x[2,2,3] <= 0
 R62: x[2,3,3] <= 0
 R63: x[2,4,3] <= 2
 R64: x[3,1,3] <= 0
 R65: x[3,2,3] <= 0
 R66: x[3,3,3] <= 0
 R67: x[3,4,3] <= 0
 R68: x[4,1,3] <= 0
 R69: x[4,2,3] <= 0
 R70: x[4,3,3] <= 0
 R71: x[4,4,3] <= 0
 R72: x[1,1,4] <= 0
 R73: x[1,2,4] <= 0
 R74: x[1,3,4] <= 1
 R75: x[1,4,4] <= 0
 R76: x[2,1,4] <= 0
 R77: x[2,2,4] <= 0
 R78: x[2,3,4] <= 1
 R79: x[2,4,4] <= 0
 R80: x[3,1,4] <= 0
 R81: x[3,2,4] <= 0
 R82: x[3,3,4] <= 0
 R83: x[3,4,4] <= 0
 R84: x[4,1,4] <= 0
 R85: x[4,2,4] <= 0
 R86: x[4,3,4] <= 1
 R87: x[4,4,4] <= 0
 R88: x[1,1,5] <= 0
 R89: x[1,2,5] <= 0
 R90: x[1,3,5] <= 0
 R91: x[1,4,5] <= 0
 R92: x[2,1,5] <= 1
 R93: x[2,2,5] <= 0
 R94: x[2,3,5] <= 0
 R95: x[2,4,5] <= 1
 R96: x[3,1,5] <= 0
 R97: x[3,2,5] <= 0
 R98: x[3,3,5] <= 0
 R99: x[3,4,5] <= 0
 R100: x[4,1,5] <= 2
 R101: x[4,2,5] <= 0
 R102: x[4,3,5] <= 0
 R103: x[4,4,5] <= 0
 R104: x[1,1,6] <= 0
 R105: x[1,2,6] <= 0
 R106: x[1,3,6] <= 0
 R107: x[1,4,6] <= 0
 R108: x[2,1,6] <= 1
 R109: x[2,2,6] <= 0
 R110: x[2,3,6] <= 0
 R111: x[2,4,6] <= 0
 R112: x[3,1,6] <= 0
 R113: x[3,2,6] <= 0
 R114: x[3,3,6] <= 0
 R115: x[3,4,6] <= 0
 R116: x[4,1,6] <= 0
 R117: x[4,2,6] <= 0
 R118: x[4,3,6] <= 1
 R119: x[4,4,6] <= 0
Bounds
End
